50, 11515
13, 115
113, 215
393, 495
684, 785
139, 238
113, 211
232, 333
758, 858
148, 249
741, 839
663, 761
137, 239
536, 637
448, 549
413, 511
997, 1096
94, 196
21, 122
940, 1042
403, 501
199, 299
331, 433
365, 465
956, 1057
211, 311
217, 315
585, 683
548, 650
954, 1052
839, 937
356, 455
204, 305
837, 939
989, 1089
31, 131
736, 837
869, 968
652, 751
219, 320
797, 898
730, 828
194, 292
641, 739
220, 321
42, 143
337, 439
335, 436
397, 496
647, 748
837, 939
